p cnf 1823
-25 -571
-26 -574
-27 -577
-28 -580
-29 -583
-30 -586
-31 -589
-32 -592
-33 -595
-34 -598
-35 -601
-36 -604
-37 -607
-38 -610
-39 -613
-40 -616
-41 -619
-42 -622
-43 -625
-44 -628
-45 -631
-46 -634
-47 -637
-48 -640
-49 641
-50 642
-51 643
-52 644
-53 645
-54 646
-55 647
-56 648
-57 649
-58 650
-59 651
-60 652
-61 653
-62 654
-63 655
-64 656
-65 -26
-65 -27
26 27 65
-66 -28
-66 -29
28 29 66
-67 -30
-67 -31
30 31 67
-68 -32
-68 -33
32 33 68
-69 -34
-69 -35
34 35 69
-70 -36
-70 -37
36 37 70
-71 -38
-71 -39
38 39 71
-72 -40
-72 -41
40 41 72
-73 -42
-73 -43
42 43 73
-74 -44
-74 -45
44 45 74
-75 -46
-75 -47
46 47 75
-76 -48
-76 -49
48 49 76
-77 -50
-77 -51
50 51 77
-78 -52
-78 -53
52 53 78
-79 -54
-79 -55
54 55 79
-80 -56
-80 -57
56 57 80
-81 -58
-81 -59
58 59 81
-82 -60
-82 -61
60 61 82
-83 -62
-83 -63
62 63 83
-84 65
-84 66
-65 -66 84
-85 67
-85 68
-67 -68 85
-86 69
-86 70
-69 -70 86
-87 71
-87 72
-71 -72 87
-88 73
-88 74
-73 -74 88
-89 75
-89 76
-75 -76 89
-90 77
-90 78
-77 -78 90
-91 79
-91 80
-79 -80 91
-92 81
-92 82
-81 -82 92
-93 -64
-93 83
64 -83 93
-94 84
-94 85
-84 -85 94
-95 86
-95 87
-86 -87 95
-96 88
-96 89
-88 -89 96
-97 90
-97 91
-90 -91 97
-98 92
-98 93
-92 -93 98
-99 94
-99 95
-94 -95 99
-100 96
-100 97
-96 -97 100
-101 99
-101 100
-99 -100 101
-102 98
-102 101
-98 -101 102
-103 -25
-103 26
25 -26 103
-104 25
-104 -26
-25 26 104
-105 -103
-105 -104
103 104 105
-106 25
-106 26
-25 -26 106
-107 -25
-107 -105
25 105 107
-108 25
-108 105
-25 -105 108
-109 -107
-109 -108
107 108 109
-110 25
-110 -105
-25 105 110
-111 -106
-111 -110
106 110 111
-112 -26
-112 27
26 -27 112
-113 26
-113 -27
-26 27 113
-114 -112
-114 -113
112 113 114
-115 26
-115 27
-26 -27 115
-116 111
-116 -114
-111 114 116
-117 -111
-117 114
111 -114 117
-118 -116
-118 -117
116 117 118
-119 -111
-119 -114
111 114 119
-120 -115
-120 -119
115 119 120
-121 -27
-121 28
27 -28 121
-122 27
-122 -28
-27 28 122
-123 -121
-123 -122
121 122 123
-124 27
-124 28
-27 -28 124
-125 120
-125 -123
-120 123 125
-126 -120
-126 123
120 -123 126
-127 -125
-127 -126
125 126 127
-128 -120
-128 -123
120 123 128
-129 -124
-129 -128
124 128 129
-130 -28
-130 29
28 -29 130
-131 28
-131 -29
-28 29 131
-132 -130
-132 -131
130 131 132
-133 28
-133 29
-28 -29 133
-134 129
-134 -132
-129 132 134
-135 -129
-135 132
129 -132 135
-136 -134
-136 -135
134 135 136
-137 -129
-137 -132
129 132 137
-138 -133
-138 -137
133 137 138
-139 -29
-139 30
29 -30 139
-140 29
-140 -30
-29 30 140
-141 -139
-141 -140
139 140 141
-142 29
-142 30
-29 -30 142
-143 138
-143 -141
-138 141 143
-144 -138
-144 141
138 -141 144
-145 -143
-145 -144
143 144 145
-146 -138
-146 -141
138 141 146
-147 -142
-147 -146
142 146 147
-148 -30
-148 31
30 -31 148
-149 30
-149 -31
-30 31 149
-150 -148
-150 -149
148 149 150
-151 30
-151 31
-30 -31 151
-152 147
-152 -150
-147 150 152
-153 -147
-153 150
147 -150 153
-154 -152
-154 -153
152 153 154
-155 -147
-155 -150
147 150 155
-156 -151
-156 -155
151 155 156
-157 -31
-157 32
31 -32 157
-158 31
-158 -32
-31 32 158
-159 -157
-159 -158
157 158 159
-160 31
-160 32
-31 -32 160
-161 156
-161 -159
-156 159 161
-162 -156
-162 159
156 -159 162
-163 -161
-163 -162
161 162 163
-164 -156
-164 -159
156 159 164
-165 -160
-165 -164
160 164 165
-166 -32
-166 33
32 -33 166
-167 32
-167 -33
-32 33 167
-168 -166
-168 -167
166 167 168
-169 32
-169 33
-32 -33 169
-170 165
-170 -168
-165 168 170
-171 -165
-171 168
165 -168 171
-172 -170
-172 -171
170 171 172
-173 -165
-173 -168
165 168 173
-174 -169
-174 -173
169 173 174
-175 -33
-175 34
33 -34 175
-176 33
-176 -34
-33 34 176
-177 -175
-177 -176
175 176 177
-178 33
-178 34
-33 -34 178
-179 174
-179 -177
-174 177 179
-180 -174
-180 177
174 -177 180
-181 -179
-181 -180
179 180 181
-182 -174
-182 -177
174 177 182
-183 -178
-183 -182
178 182 183
-184 -34
-184 35
34 -35 184
-185 34
-185 -35
-34 35 185
-186 -184
-186 -185
184 185 186
-187 34
-187 35
-34 -35 187
-188 183
-188 -186
-183 186 188
-189 -183
-189 186
183 -186 189
-190 -188
-190 -189
188 189 190
-191 -183
-191 -186
183 186 191
-192 -187
-192 -191
187 191 192
-193 -35
-193 36
35 -36 193
-194 35
-194 -36
-35 36 194
-195 -193
-195 -194
193 194 195
-196 35
-196 36
-35 -36 196
-197 192
-197 -195
-192 195 197
-198 -192
-198 195
192 -195 198
-199 -197
-199 -198
197 198 199
-200 -192
-200 -195
192 195 200
-201 -196
-201 -200
196 200 201
-202 -36
-202 37
36 -37 202
-203 36
-203 -37
-36 37 203
-204 -202
-204 -203
202 203 204
-205 36
-205 37
-36 -37 205
-206 201
-206 -204
-201 204 206
-207 -201
-207 204
201 -204 207
-208 -206
-208 -207
206 207 208
-209 -201
-209 -204
201 204 209
-210 -205
-210 -209
205 209 210
-211 -37
-211 38
37 -38 211
-212 37
-212 -38
-37 38 212
-213 -211
-213 -212
211 212 213
-214 37
-214 38
-37 -38 214
-215 210
-215 -213
-210 213 215
-216 -210
-216 213
210 -213 216
-217 -215
-217 -216
215 216 217
-218 -210
-218 -213
210 213 218
-219 -214
-219 -218
214 218 219
-220 -38
-220 39
38 -39 220
-221 38
-221 -39
-38 39 221
-222 -220
-222 -221
220 221 222
-223 38
-223 39
-38 -39 223
-224 219
-224 -222
-219 222 224
-225 -219
-225 222
219 -222 225
-226 -224
-226 -225
224 225 226
-227 -219
-227 -222
219 222 227
-228 -223
-228 -227
223 227 228
-229 -39
-229 40
39 -40 229
-230 39
-230 -40
-39 40 230
-231 -229
-231 -230
229 230 231
-232 39
-232 40
-39 -40 232
-233 228
-233 -231
-228 231 233
-234 -228
-234 231
228 -231 234
-235 -233
-235 -234
233 234 235
-236 -228
-236 -231
228 231 236
-237 -232
-237 -236
232 236 237
-238 -40
-238 41
40 -41 238
-239 40
-239 -41
-40 41 239
-240 -238
-240 -239
238 239 240
-241 40
-241 41
-40 -41 241
-242 237
-242 -240
-237 240 242
-243 -237
-243 240
237 -240 243
-244 -242
-244 -243
242 243 244
-245 -237
-245 -240
237 240 245
-246 -241
-246 -245
241 245 246
-247 -41
-247 42
41 -42 247
-248 41
-248 -42
-41 42 248
-249 -247
-249 -248
247 248 249
-250 41
-250 42
-41 -42 250
-251 246
-251 -249
-246 249 251
-252 -246
-252 249
246 -249 252
-253 -251
-253 -252
251 252 253
-254 -246
-254 -249
246 249 254
-255 -250
-255 -254
250 254 255
-256 -42
-256 43
42 -43 256
-257 42
-257 -43
-42 43 257
-258 -256
-258 -257
256 257 258
-259 42
-259 43
-42 -43 259
-260 255
-260 -258
-255 258 260
-261 -255
-261 258
255 -258 261
-262 -260
-262 -261
260 261 262
-263 -255
-263 -258
255 258 263
-264 -259
-264 -263
259 263 264
-265 -43
-265 44
43 -44 265
-266 43
-266 -44
-43 44 266
-267 -265
-267 -266
265 266 267
-268 43
-268 44
-43 -44 268
-269 264
-269 -267
-264 267 269
-270 -264
-270 267
264 -267 270
-271 -269
-271 -270
269 270 271
-272 -264
-272 -267
264 267 272
-273 -268
-273 -272
268 272 273
-274 -44
-274 45
44 -45 274
-275 44
-275 -45
-44 45 275
-276 -274
-276 -275
274 275 276
-277 44
-277 45
-44 -45 277
-278 273
-278 -276
-273 276 278
-279 -273
-279 276
273 -276 279
-280 -278
-280 -279
278 279 280
-281 -273
-281 -276
273 276 281
-282 -277
-282 -281
277 281 282
-283 -45
-283 46
45 -46 283
-284 45
-284 -46
-45 46 284
-285 -283
-285 -284
283 284 285
-286 45
-286 46
-45 -46 286
-287 282
-287 -285
-282 285 287
-288 -282
-288 285
282 -285 288
-289 -287
-289 -288
287 288 289
-290 -282
-290 -285
282 285 290
-291 -286
-291 -290
286 290 291
-292 -46
-292 47
46 -47 292
-293 46
-293 -47
-46 47 293
-294 -292
-294 -293
292 293 294
-295 46
-295 47
-46 -47 295
-296 291
-296 -294
-291 294 296
-297 -291
-297 294
291 -294 297
-298 -296
-298 -297
296 297 298
-299 -291
-299 -294
291 294 299
-300 -295
-300 -299
295 299 300
-301 -47
-301 48
47 -48 301
-302 47
-302 -48
-47 48 302
-303 -301
-303 -302
301 302 303
-304 47
-304 48
-47 -48 304
-305 300
-305 -303
-300 303 305
-306 -300
-306 303
300 -303 306
-307 -305
-307 -306
305 306 307
-308 -300
-308 -303
300 303 308
-309 -304
-309 -308
304 308 309
-310 -48
-310 49
48 -49 310
-311 48
-311 -49
-48 49 311
-312 -310
-312 -311
310 311 312
-313 48
-313 49
-48 -49 313
-314 309
-314 -312
-309 312 314
-315 -309
-315 312
309 -312 315
-316 -314
-316 -315
314 315 316
-317 -309
-317 -312
309 312 317
-318 -313
-318 -317
313 317 318
-319 -49
-319 50
49 -50 319
-320 49
-320 -50
-49 50 320
-321 -319
-321 -320
319 320 321
-322 49
-322 50
-49 -50 322
-323 318
-323 -321
-318 321 323
-324 -318
-324 321
318 -321 324
-325 -323
-325 -324
323 324 325
-326 -318
-326 -321
318 321 326
-327 -322
-327 -326
322 326 327
-328 -50
-328 51
50 -51 328
-329 50
-329 -51
-50 51 329
-330 -328
-330 -329
328 329 330
-331 50
-331 51
-50 -51 331
-332 327
-332 -330
-327 330 332
-333 -327
-333 330
327 -330 333
-334 -332
-334 -333
332 333 334
-335 -327
-335 -330
327 330 335
-336 -331
-336 -335
331 335 336
-337 -51
-337 52
51 -52 337
-338 51
-338 -52
-51 52 338
-339 -337
-339 -338
337 338 339
-340 51
-340 52
-51 -52 340
-341 336
-341 -339
-336 339 341
-342 -336
-342 339
336 -339 342
-343 -341
-343 -342
341 342 343
-344 -336
-344 -339
336 339 344
-345 -340
-345 -344
340 344 345
-346 -52
-346 53
52 -53 346
-347 52
-347 -53
-52 53 347
-348 -346
-348 -347
346 347 348
-349 52
-349 53
-52 -53 349
-350 345
-350 -348
-345 348 350
-351 -345
-351 348
345 -348 351
-352 -350
-352 -351
350 351 352
-353 -345
-353 -348
345 348 353
-354 -349
-354 -353
349 353 354
-355 -53
-355 54
53 -54 355
-356 53
-356 -54
-53 54 356
-357 -355
-357 -356
355 356 357
-358 53
-358 54
-53 -54 358
-359 354
-359 -357
-354 357 359
-360 -354
-360 357
354 -357 360
-361 -359
-361 -360
359 360 361
-362 -354
-362 -357
354 357 362
-363 -358
-363 -362
358 362 363
-364 -54
-364 55
54 -55 364
-365 54
-365 -55
-54 55 365
-366 -364
-366 -365
364 365 366
-367 54
-367 55
-54 -55 367
-368 363
-368 -366
-363 366 368
-369 -363
-369 366
363 -366 369
-370 -368
-370 -369
368 369 370
-371 -363
-371 -366
363 366 371
-372 -367
-372 -371
367 371 372
-373 -55
-373 56
55 -56 373
-374 55
-374 -56
-55 56 374
-375 -373
-375 -374
373 374 375
-376 55
-376 56
-55 -56 376
-377 372
-377 -375
-372 375 377
-378 -372
-378 375
372 -375 378
-379 -377
-379 -378
377 378 379
-380 -372
-380 -375
372 375 380
-381 -376
-381 -380
376 380 381
-382 -56
-382 57
56 -57 382
-383 56
-383 -57
-56 57 383
-384 -382
-384 -383
382 383 384
-385 56
-385 57
-56 -57 385
-386 381
-386 -384
-381 384 386
-387 -381
-387 384
381 -384 387
-388 -386
-388 -387
386 387 388
-389 -381
-389 -384
381 384 389
-390 -385
-390 -389
385 389 390
-391 -57
-391 58
57 -58 391
-392 57
-392 -58
-57 58 392
-393 -391
-393 -392
391 392 393
-394 57
-394 58
-57 -58 394
-395 390
-395 -393
-390 393 395
-396 -390
-396 393
390 -393 396
-397 -395
-397 -396
395 396 397
-398 -390
-398 -393
390 393 398
-399 -394
-399 -398
394 398 399
-400 -58
-400 59
58 -59 400
-401 58
-401 -59
-58 59 401
-402 -400
-402 -401
400 401 402
-403 58
-403 59
-58 -59 403
-404 399
-404 -402
-399 402 404
-405 -399
-405 402
399 -402 405
-406 -404
-406 -405
404 405 406
-407 -399
-407 -402
399 402 407
-408 -403
-408 -407
403 407 408
-409 -59
-409 60
59 -60 409
-410 59
-410 -60
-59 60 410
-411 -409
-411 -410
409 410 411
-412 59
-412 60
-59 -60 412
-413 408
-413 -411
-408 411 413
-414 -408
-414 411
408 -411 414
-415 -413
-415 -414
413 414 415
-416 -408
-416 -411
408 411 416
-417 -412
-417 -416
412 416 417
-418 -60
-418 61
60 -61 418
-419 60
-419 -61
-60 61 419
-420 -418
-420 -419
418 419 420
-421 60
-421 61
-60 -61 421
-422 417
-422 -420
-417 420 422
-423 -417
-423 420
417 -420 423
-424 -422
-424 -423
422 423 424
-425 -417
-425 -420
417 420 425
-426 -421
-426 -425
421 425 426
-427 -61
-427 62
61 -62 427
-428 61
-428 -62
-61 62 428
-429 -427
-429 -428
427 428 429
-430 61
-430 62
-61 -62 430
-431 426
-431 -429
-426 429 431
-432 -426
-432 429
426 -429 432
-433 -431
-433 -432
431 432 433
-434 -426
-434 -429
426 429 434
-435 -430
-435 -434
430 434 435
-436 -62
-436 63
62 -63 436
-437 62
-437 -63
-62 63 437
-438 -436
-438 -437
436 437 438
-439 62
-439 63
-62 -63 439
-440 435
-440 -438
-435 438 440
-441 -435
-441 438
435 -438 441
-442 -440
-442 -441
440 441 442
-443 -435
-443 -438
435 438 443
-444 -439
-444 -443
439 443 444
-445 -63
-445 64
63 -64 445
-446 63
-446 -64
-63 64 446
-447 -445
-447 -446
445 446 447
-448 63
-448 64
-63 -64 448
-449 444
-449 -447
-444 447 449
-450 -444
-450 447
444 -447 450
-451 -449
-451 -450
449 450 451
-452 -444
-452 -447
444 447 452
-453 -448
-453 -452
448 452 453
-454 25
-454 -109
-25 109 454
-455 -25
-455 27
25 -27 455
-456 -454
-456 -455
454 455 456
-457 25
-457 -118
-25 118 457
-458 -25
-458 28
25 -28 458
-459 -457
-459 -458
457 458 459
-460 25
-460 -127
-25 127 460
-461 -25
-461 29
25 -29 461
-462 -460
-462 -461
460 461 462
-463 25
-463 -136
-25 136 463
-464 -25
-464 30
25 -30 464
-465 -463
-465 -464
463 464 465
-466 25
-466 -145
-25 145 466
-467 -25
-467 31
25 -31 467
-468 -466
-468 -467
466 467 468
-469 25
-469 -154
-25 154 469
-470 -25
-470 32
25 -32 470
-471 -469
-471 -470
469 470 471
-472 25
-472 -163
-25 163 472
-473 -25
-473 33
25 -33 473
-474 -472
-474 -473
472 473 474
-475 25
-475 -172
-25 172 475
-476 -25
-476 34
25 -34 476
-477 -475
-477 -476
475 476 477
-478 25
-478 -181
-25 181 478
-479 -25
-479 35
25 -35 479
-480 -478
-480 -479
478 479 480
-481 25
-481 -190
-25 190 481
-482 -25
-482 36
25 -36 482
-483 -481
-483 -482
481 482 483
-484 25
-484 -199
-25 199 484
-485 -25
-485 37
25 -37 485
-486 -484
-486 -485
484 485 486
-487 25
-487 -208
-25 208 487
-488 -25
-488 38
25 -38 488
-489 -487
-489 -488
487 488 489
-490 25
-490 -217
-25 217 490
-491 -25
-491 39
25 -39 491
-492 -490
-492 -491
490 491 492
-493 25
-493 -226
-25 226 493
-494 -25
-494 40
25 -40 494
-495 -493
-495 -494
493 494 495
-496 25
-496 -235
-25 235 496
-497 -25
-497 41
25 -41 497
-498 -496
-498 -497
496 497 498
-499 25
-499 -244
-25 244 499
-500 -25
-500 42
25 -42 500
-501 -499
-501 -500
499 500 501
-502 25
-502 -253
-25 253 502
-503 -25
-503 43
25 -43 503
-504 -502
-504 -503
502 503 504
-505 25
-505 -262
-25 262 505
-506 -25
-506 44
25 -44 506
-507 -505
-507 -506
505 506 507
-508 25
-508 -271
-25 271 508
-509 -25
-509 45
25 -45 509
-510 -508
-510 -509
508 509 510
-511 25
-511 -280
-25 280 511
-512 -25
-512 46
25 -46 512
-513 -511
-513 -512
511 512 513
-514 25
-514 -289
-25 289 514
-515 -25
-515 47
25 -47 515
-516 -514
-516 -515
514 515 516
-517 25
-517 -298
-25 298 517
-518 -25
-518 48
25 -48 518
-519 -517
-519 -518
517 518 519
-520 25
-520 -307
-25 307 520
-521 -25
-521 49
25 -49 521
-522 -520
-522 -521
520 521 522
-523 25
-523 -316
-25 316 523
-524 -25
-524 50
25 -50 524
-525 -523
-525 -524
523 524 525
-526 25
-526 -325
-25 325 526
-527 -25
-527 51
25 -51 527
-528 -526
-528 -527
526 527 528
-529 25
-529 -334
-25 334 529
-530 -25
-530 52
25 -52 530
-531 -529
-531 -530
529 530 531
-532 25
-532 -343
-25 343 532
-533 -25
-533 53
25 -53 533
-534 -532
-534 -533
532 533 534
-535 25
-535 -352
-25 352 535
-536 -25
-536 54
25 -54 536
-537 -535
-537 -536
535 536 537
-538 25
-538 -361
-25 361 538
-539 -25
-539 55
25 -55 539
-540 -538
-540 -539
538 539 540
-541 25
-541 -370
-25 370 541
-542 -25
-542 56
25 -56 542
-543 -541
-543 -542
541 542 543
-544 25
-544 -379
-25 379 544
-545 -25
-545 57
25 -57 545
-546 -544
-546 -545
544 545 546
-547 25
-547 -388
-25 388 547
-548 -25
-548 58
25 -58 548
-549 -547
-549 -548
547 548 549
-550 25
-550 -397
-25 397 550
-551 -25
-551 59
25 -59 551
-552 -550
-552 -551
550 551 552
-553 25
-553 -406
-25 406 553
-554 -25
-554 60
25 -60 554
-555 -553
-555 -554
553 554 555
-556 25
-556 -415
-25 415 556
-557 -25
-557 61
25 -61 557
-558 -556
-558 -557
556 557 558
-559 25
-559 -424
-25 424 559
-560 -25
-560 62
25 -62 560
-561 -559
-561 -560
559 560 561
-562 25
-562 -433
-25 433 562
-563 -25
-563 63
25 -63 563
-564 -562
-564 -563
562 563 564
-565 25
-565 -442
-25 442 565
-566 -25
-566 64
25 -64 566
-567 -565
-567 -566
565 566 567
-568 25
-568 -451
-25 451 568
-569 1
-569 102
-1 -102 569
-570 -102
-570 103
102 -103 570
-571 -569
-571 -570
569 570 571
-572 2
-572 102
-2 -102 572
-573 -102
-573 -456
102 456 573
-574 -572
-574 -573
572 573 574
-575 3
-575 102
-3 -102 575
-576 -102
-576 -459
102 459 576
-577 -575
-577 -576
575 576 577
-578 4
-578 102
-4 -102 578
-579 -102
-579 -462
102 462 579
-580 -578
-580 -579
578 579 580
-581 5
-581 102
-5 -102 581
-582 -102
-582 -465
102 465 582
-583 -581
-583 -582
581 582 583
-584 6
-584 102
-6 -102 584
-585 -102
-585 -468
102 468 585
-586 -584
-586 -585
584 585 586
-587 7
-587 102
-7 -102 587
-588 -102
-588 -471
102 471 588
-589 -587
-589 -588
587 588 589
-590 8
-590 102
-8 -102 590
-591 -102
-591 -474
102 474 591
-592 -590
-592 -591
590 591 592
-593 9
-593 102
-9 -102 593
-594 -102
-594 -477
102 477 594
-595 -593
-595 -594
593 594 595
-596 10
-596 102
-10 -102 596
-597 -102
-597 -480
102 480 597
-598 -596
-598 -597
596 597 598
-599 11
-599 102
-11 -102 599
-600 -102
-600 -483
102 483 600
-601 -599
-601 -600
599 600 601
-602 12
-602 102
-12 -102 602
-603 -102
-603 -486
102 486 603
-604 -602
-604 -603
602 603 604
-605 13
-605 102
-13 -102 605
-606 -102
-606 -489
102 489 606
-607 -605
-607 -606
605 606 607
-608 14
-608 102
-14 -102 608
-609 -102
-609 -492
102 492 609
-610 -608
-610 -609
608 609 610
-611 15
-611 102
-15 -102 611
-612 -102
-612 -495
102 495 612
-613 -611
-613 -612
611 612 613
-614 16
-614 102
-16 -102 614
-615 -102
-615 -498
102 498 615
-616 -614
-616 -615
614 615 616
-617 17
-617 102
-17 -102 617
-618 -102
-618 -501
102 501 618
-619 -617
-619 -618
617 618 619
-620 18
-620 102
-18 -102 620
-621 -102
-621 -504
102 504 621
-622 -620
-622 -621
620 621 622
-623 19
-623 102
-19 -102 623
-624 -102
-624 -507
102 507 624
-625 -623
-625 -624
623 624 625
-626 20
-626 102
-20 -102 626
-627 -102
-627 -510
102 510 627
-628 -626
-628 -627
626 627 628
-629 21
-629 102
-21 -102 629
-630 -102
-630 -513
102 513 630
-631 -629
-631 -630
629 630 631
-632 22
-632 102
-22 -102 632
-633 -102
-633 -516
102 516 633
-634 -632
-634 -633
632 633 634
-635 23
-635 102
-23 -102 635
-636 -102
-636 -519
102 519 636
-637 -635
-637 -636
635 636 637
-638 24
-638 102
-24 -102 638
-639 -102
-639 -522
102 522 639
-640 -638
-640 -639
638 639 640
-641 -102
-641 -525
102 525 641
-642 -102
-642 -528
102 528 642
-643 -102
-643 -531
102 531 643
-644 -102
-644 -534
102 534 644
-645 -102
-645 -537
102 537 645
-646 -102
-646 -540
102 540 646
-647 -102
-647 -543
102 543 647
-648 -102
-648 -546
102 546 648
-649 -102
-649 -549
102 549 649
-650 -102
-650 -552
102 552 650
-651 -102
-651 -555
102 555 651
-652 -102
-652 -558
102 558 652
-653 -102
-653 -561
102 561 653
-654 -102
-654 -564
102 564 654
-655 -102
-655 -567
102 567 655
-656 -102
-656 568
102 -568 656
-657 -64
-657 453
64 -453 657
-658 25
-658 -657
-25 657 658
658
